
Gurobi 10.0.1 (linux64) logging started Sun Nov 26 16:34:09 2023

Set parameter LogFile to value "ArtificialInstance/ExperimentV2/S3T4K3/AdSp/gurobiDoSp89.txt"
Gurobi Optimizer version 10.0.1 build v10.0.1rc0 (linux64)

CPU model: AMD EPYC 7H12 64-Core Processor, instruction set [SSE2|AVX|AVX2]
Thread count: 128 physical cores, 128 logical processors, using up to 32 threads

Academic license 656792 - for non-commercial use only - registered to b.___@student.vu.nl
Optimize a model with 17360 rows, 16344 columns and 63064 nonzeros
Model fingerprint: 0x40273198
Variable types: 0 continuous, 16344 integer (16344 binary)
Coefficient statistics:
  Matrix range     [1e+00, 1e+00]
  Objective range  [1e+00, 2e+01]
  Bounds range     [1e+00, 1e+00]
  RHS range        [1e+00, 1e+00]
Presolve removed 13990 rows and 13217 columns
Presolve time: 0.31s
Presolved: 3370 rows, 3127 columns, 12215 nonzeros
Variable types: 0 continuous, 3127 integer (3127 binary)

Root relaxation: objective 8.544994e+01, 699 iterations, 0.01 seconds (0.01 work units)

    Nodes    |    Current Node    |     Objective Bounds      |     Work
 Expl Unexpl |  Obj  Depth IntInf | Incumbent    BestBd   Gap | It/Node Time

*    0     0               0      85.4499433   85.44994  0.00%     -    0s

Explored 1 nodes (699 simplex iterations) in 0.36 seconds (0.24 work units)
Thread count was 32 (of 128 available processors)

Solution count 1: 85.4499 

Optimal solution found (tolerance 1.00e-04)
Best objective 8.544994334155e+01, best bound 8.544994334155e+01, gap 0.0000%
